(declare-const X String)
; couponbar\.coupons\.com\dOwner\x3A\s+Host\x3A
(assert (str.in_re X (re.++ (str.to_re "couponbar.coupons.com") (re.range "0" "9") (str.to_re "Owner:") (re.+ (re.union (str.to_re " ") (str.to_re "\u{9}") (str.to_re "\u{a}") (str.to_re "\u{c}") (str.to_re "\u{d}"))) (str.to_re "Host:\u{a}"))))
; versionIDENTIFYstarted\x2EUser-Agent\x3A
(assert (str.in_re X (str.to_re "versionIDENTIFYstarted.User-Agent:\u{a}")))
; ^([0-9]|[1-9][0-9]|[1-9][0-9][0-9])$
(assert (str.in_re X (re.++ (re.union (re.range "0" "9") (re.++ (re.range "1" "9") (re.range "0" "9")) (re.++ (re.range "1" "9") (re.range "0" "9") (re.range "0" "9"))) (str.to_re "\u{a}"))))
(check-sat)
